p cnf 15 48
1 2 0
-1 -2 0
3 4 5 -6 0
3 4 -5 6 0
3 -4 5 6 0
3 -4 -5 -6 0
-3 4 5 6 0
-3 4 -5 -6 0
-3 -4 5 -6 0
-3 -4 -5 6 0
1 3 7 -8 0
1 3 -7 8 0
1 -3 7 8 0
1 -3 -7 -8 0
-1 3 7 8 0
-1 3 -7 -8 0
-1 -3 7 -8 0
-1 -3 -7 8 0
4 9 10 11 0
4 9 -10 -11 0
4 -9 10 -11 0
4 -9 -10 11 0
-4 9 10 -11 0
-4 9 -10 11 0
-4 -9 10 11 0
-4 -9 -10 -11 0
5 9 0
-5 -9 0
12 13 0
-12 -13 0
6 7 -10 0
6 -7 10 0
-6 7 10 0
-6 -7 -10 0
8 12 -14 0
8 -12 14 0
-8 12 14 0
-8 -12 -14 0
2 -15 0
-2 15 0
11 13 14 15 0
11 13 -14 -15 0
11 -13 14 -15 0
11 -13 -14 15 0
-11 13 14 -15 0
-11 13 -14 15 0
-11 -13 14 15 0
-11 -13 -14 -15 0
